
List of user-set options:

                                    Name   Value                used
                           compl_inf_tol = 1                     yes
                         constr_viol_tol = 1                     yes
                            dual_inf_tol = 1000                  yes
                           linear_solver = ma97                  yes
                              ma86_small = 1e-30                  no
                                  ma86_u = 0.0001                 no
                              ma97_order = best                  yes
                              ma97_small = 1e-30                 yes
                            ma97_switch1 = at_start              yes
                            ma97_switch2 = od_hd_reuse           yes
                                  ma97_u = 1e-06                 yes
                               ma97_umax = 0.5                   yes
                                max_iter = 1000                  yes
                    max_refinement_steps = 20                    yes
                    min_refinement_steps = 5                     yes
                                 mu_init = 1e-06                 yes
           mu_superlinear_decrease_power = 1.25                  yes
                   nlp_scaling_min_value = 1e-08                 yes
                        option_file_name = Preset_Case:_805_NCP.opt  yes
                             output_file = ./tmp/Preset_Case:_805_NCP.output  yes
                      print_user_options = yes                   yes
        required_infeasibility_reduction = 1                      no
                                     tol = 1e-08                 yes
                   warm_start_bound_frac = 1e-20                 yes
                   warm_start_bound_push = 1e-20                 yes
                   warm_start_init_point = yes                   yes
              warm_start_mult_bound_push = 1e-20                 yes
                warm_start_mult_init_max = 1e+40                 yes
             warm_start_slack_bound_frac = 1e-20                 yes
             warm_start_slack_bound_push = 1e-20                 yes

******************************************************************************
This program contains Ipopt, a library for large-scale nonlinear optimization.
 Ipopt is released as open source code under the Eclipse Public License (EPL).
         For more information visit http://projects.coin-or.org/Ipopt
******************************************************************************

This is Ipopt version 3.12.10, running with linear solver ma97.

Number of nonzeros in equality constraint Jacobian...:   117167
Number of nonzeros in inequality constraint Jacobian.:      213
Number of nonzeros in Lagrangian Hessian.............:    47513

Total number of variables............................:    29977
                     variables with only lower bounds:    11312
                variables with lower and upper bounds:    15135
                     variables with only upper bounds:        0
Total number of equality constraints.................:    29864
Total number of inequality constraints...............:       25
        inequality constraints with only lower bounds:        4
   inequality constraints with lower and upper bounds:        0
        inequality constraints with only upper bounds:       21

iter    objective    inf_pr   inf_du lg(mu)  ||d||  lg(rg) alpha_du alpha_pr  ls
   0 -1.9708684e-01 9.46e-02 2.00e+00  -6.0 0.00e+00    -  0.00e+00 0.00e+00   0
In iteration 0, 9 Slacks too small, adjusting variable bounds
   1 -1.9708684e-01 9.46e-02 3.02e+02  -6.0 1.11e+10    -  3.01e-14 5.60e-19h  1
   2 -1.9708567e-01 9.46e-02 6.87e+02  -6.0 3.93e+02    -  9.64e-03 1.41e-05f  1
   3 -1.9631141e-01 9.35e-02 6.82e+02  -6.0 3.05e+02    -  7.22e-04 1.17e-02h  1
   4 -1.9618068e-01 9.34e-02 6.74e+02  -6.0 2.50e+02    -  2.57e-02 1.95e-03h  1
   5 -1.9477392e-01 9.14e-02 6.64e+02  -6.0 2.73e+02    -  3.44e-03 2.09e-02h  2
   6 -1.9303058e-01 8.90e-02 6.36e+02  -6.0 2.36e+02    -  6.54e-02 2.68e-02h  2
   7 -1.9105219e-01 8.61e-02 6.16e+02  -6.0 2.06e+02    -  3.17e-02 3.20e-02h  3
   8 -1.8916409e-01 8.34e-02 5.84e+02  -6.0 1.91e+02    -  7.44e-02 3.16e-02h  3
   9 -1.8723944e-01 8.06e-02 5.46e+02  -6.0 1.61e+02    -  9.67e-02 3.39e-02h  3
iter    objective    inf_pr   inf_du lg(mu)  ||d||  lg(rg) alpha_du alpha_pr  ls
  10 -1.8296354e-01 7.42e-02 4.89e+02  -6.0 1.19e+02    -  1.27e-01 7.90e-02h  2
  11 -1.7911795e-01 6.84e-02 4.26e+02  -6.0 8.12e+01    -  1.67e-01 7.85e-02h  2
  12 -1.7593624e-01 6.93e-02 3.57e+02  -6.0 7.37e+01    -  2.46e-01 7.11e-02h  2
  13 -1.7289637e-01 7.27e-02 3.13e+02  -6.0 6.78e+01    -  1.79e-01 7.37e-02h  2
  14 -1.7031230e-01 6.39e-02 3.12e+02  -6.0 3.60e+01    -  4.32e-01 6.69e-02h  2
  15 -1.4960589e-01 6.14e-01 3.25e+02  -6.0 5.47e+01    -  4.41e-01 5.96e-01w  1
  16 -1.3840226e-01 6.36e-01 1.62e+03  -6.0 8.41e+01    -  2.26e-01 1.00e+00w  1
  17 -1.3757335e-01 1.04e-01 2.59e+02  -6.0 2.52e+00    -  6.96e-01 8.35e-01w  1
  18 -1.3646338e-01 2.46e-01 2.22e+01  -6.0 1.24e+01    -  4.51e-01 1.00e+00h  1
  19 -1.3882609e-01 2.03e-02 4.78e+01  -6.0 2.27e+01    -  5.93e-01 1.00e+00h  1
iter    objective    inf_pr   inf_du lg(mu)  ||d||  lg(rg) alpha_du alpha_pr  ls
  20 -1.4162176e-01 5.74e-02 7.00e+00  -6.0 1.74e+01    -  6.44e-01 1.00e+00h  1
  21 -1.4674526e-01 2.13e-02 6.66e+00  -6.0 6.75e+01    -  7.18e-01 9.93e-01H  1
  22 -1.5075912e-01 6.16e-02 4.59e+00  -6.0 2.27e+02    -  4.01e-01 2.87e-01H  1
  23 -1.5280199e-01 7.49e-02 1.49e+01  -6.0 3.47e+02    -  3.70e-01 8.96e-02h  3
  24 -1.5295989e-01 9.73e-04 1.65e-01  -6.0 6.62e-01  -4.0 9.97e-01 1.00e+00h  1
  25 -1.5333190e-01 3.86e-03 6.49e-01  -6.0 1.51e+00  -4.5 1.00e+00 1.00e+00h  1
  26 -1.5352625e-01 4.56e-03 1.35e+00  -6.0 3.71e+00  -5.0 1.00e+00 2.43e-01h  1
  27 -1.5421736e-01 2.70e-02 2.35e+00  -6.0 9.10e+00  -5.4 4.25e-01 3.73e-01f  1
  28 -1.5489581e-01 2.68e-02 7.61e-01  -6.0 3.34e+00  -5.0 1.00e+00 1.00e+00f  1
  29 -1.5581833e-01 5.85e-02 3.45e+01  -6.0 8.69e+00  -5.5 2.76e-01 5.52e-01h  1
iter    objective    inf_pr   inf_du lg(mu)  ||d||  lg(rg) alpha_du alpha_pr  ls
  30 -1.5724776e-01 3.08e-01 4.13e+01  -6.0 2.18e+01  -6.0 4.93e-01 4.27e-01F  1
  31 -1.5754338e-01 3.16e-01 7.09e+01  -6.0 6.58e+01  -6.4 8.98e-01 3.14e-02h  5
  32 -1.5764156e-01 3.16e-01 4.05e+01  -6.0 2.21e+02  -6.9 3.73e-01 3.83e-03h  7
  33 -1.5782914e-01 3.15e-01 3.65e+01  -6.0 1.63e+03  -7.4 4.81e-02 1.40e-03h  5
  34 -1.5792912e-01 3.15e-01 4.11e+01  -6.0 2.96e+02  -7.0 6.82e-02 3.45e-03h  6
  35 -1.6023847e-01 3.12e-01 4.07e+01  -6.0 2.85e+03  -7.4 1.10e-02 1.04e-02h  1
  36 -1.6978831e-01 5.66e+00 1.14e+02  -6.0 3.24e+02  -7.0 4.69e-01 2.71e-01h  1
  37 -1.7161997e-01 5.17e+00 4.21e+02  -6.0 1.13e+02  -6.6 9.86e-01 1.34e-01h  1
  38 -1.8555243e-01 4.37e+00 3.93e+01  -6.0 5.47e+02  -7.1 6.75e-02 2.49e-01h  1
  39 -1.9730554e-01 2.82e+00 4.17e+02  -6.0 2.15e+02  -6.6 2.61e-01 4.17e-01h  1
iter    objective    inf_pr   inf_du lg(mu)  ||d||  lg(rg) alpha_du alpha_pr  ls
  40 -1.9733530e-01 2.79e+00 3.84e+02  -6.0 9.56e+01  -7.1 9.80e-02 9.31e-03h  1
  41 -1.9924654e-01 2.80e+00 3.70e+02  -6.0 3.81e+02  -7.6 4.32e-02 1.13e-01f  1
  42 -1.9987786e-01 2.65e+00 2.89e+02  -6.0 4.74e+02  -8.1 1.70e-01 5.72e-02h  1
  43 -2.0201439e-01 2.38e+00 3.12e+02  -6.0 1.16e+03  -8.5 5.00e-01 1.01e-01h  1
  44 -2.0411963e-01 1.85e+00 1.44e+02  -6.0 5.02e+02  -8.1 4.19e-01 2.63e-01h  1
  45 -2.0610252e-01 2.34e+00 2.03e+02  -6.0 1.98e+03  -8.6 3.28e-01 6.68e-02h  1
  46 -2.1044497e-01 1.46e+00 5.99e+02  -6.0 5.11e+02  -8.2 2.19e-01 5.12e-01h  1
  47 -2.1139642e-01 1.09e+00 1.13e+02  -6.0 2.20e+02  -7.7 4.24e-01 3.84e-01h  1
  48 -2.1324624e-01 1.11e+00 1.09e+04  -6.0 5.62e+02  -8.2 9.68e-01 2.36e-01h  1
  49 -2.1368784e-01 9.64e-01 1.64e+04  -6.0 1.94e+02  -7.8 7.11e-01 1.41e-01h  1
iter    objective    inf_pr   inf_du lg(mu)  ||d||  lg(rg) alpha_du alpha_pr  ls
  50 -2.1876691e-01 2.74e+00 6.50e+03  -6.0 9.74e+02  -8.3 5.85e-01 5.87e-01h  1
  51 -2.2031538e-01 1.54e+00 5.07e+04  -6.0 2.31e+02  -7.9 6.80e-01 3.05e-01h  1
  52 -2.2054270e-01 1.52e+00 7.06e+04  -6.0 1.35e+03  -8.3 1.12e-01 1.22e-02h  1
  53 -2.2226640e-01 1.72e+00 3.36e+07  -6.0 1.36e+03  -7.9 4.22e-04 9.50e-02h  1
  54 -2.2694409e-01 1.09e+01 2.89e+07  -6.0 3.22e+03  -8.4 1.21e-02 1.39e-01h  1
  55 -2.2722100e-01 1.04e+01 2.74e+07  -6.0 2.82e+01  -6.1 1.49e-01 5.11e-02h  1
  56 -2.2730775e-01 1.02e+01 2.68e+07  -6.0 2.18e+01  -5.7 1.46e-01 2.19e-02h  1
  57 -2.2887941e-01 9.24e+00 1.83e+07  -6.0 4.10e+01  -6.2 1.78e-01 3.17e-01h  1
  58 -2.3016884e-01 8.75e+00 1.21e+07  -6.0 3.05e+01  -5.8 2.25e-01 3.41e-01h  1
  59 -2.3086696e-01 8.08e+00 1.05e+07  -6.0 3.70e+01  -6.2 6.62e-01 1.30e-01h  1
iter    objective    inf_pr   inf_du lg(mu)  ||d||  lg(rg) alpha_du alpha_pr  ls
  60 -2.3097580e-01 8.08e+00 1.05e+07  -6.0 4.74e+03  -6.7 1.46e-03 6.45e-04h  1
  61 -2.3099299e-01 8.06e+00 1.05e+07  -6.0 2.82e+02  -7.2 1.23e-02 2.71e-03h  1
  62 -2.3291666e-01 1.90e+01 8.71e+06  -6.0 2.23e+02  -7.7 1.16e-01 1.69e-01f  1
  63 -2.3338561e-01 1.98e+01 8.50e+06  -6.0 8.65e+02  -8.2 8.34e-02 2.46e-02h  1
Error in an AMPL evaluation. Run with "halt_on_ampl_error yes" to see details.
Warning: Cutting back alpha due to evaluation error
  64 -2.3392660e-01 1.97e+01 8.45e+06  -6.0 1.01e+04  -8.6 9.93e-03 6.19e-03h  2
  65 -2.3466020e-01 1.90e+01 8.17e+06  -6.0 2.06e+03  -8.2 1.71e-01 3.24e-02h  1
  66 -2.3525252e-01 1.69e+01 7.28e+06  -6.0 3.32e+02  -7.8 1.00e+00 1.09e-01h  1
  67 -2.3605017e-01 1.32e+01 5.68e+06  -6.0 3.24e+02  -8.3 1.00e+00 2.20e-01h  1
  68 -2.4035811e-01 4.06e+00 1.23e+06  -6.0 5.78e+02  -8.7 1.02e-01 7.83e-01h  1
  69 -2.4316304e-01 1.17e+01 3.92e+05  -6.0 1.09e+03  -9.2 5.88e-02 6.81e-01h  1
iter    objective    inf_pr   inf_du lg(mu)  ||d||  lg(rg) alpha_du alpha_pr  ls
  70 -2.4369085e-01 9.27e+00 3.11e+05  -6.0 5.47e+03  -9.7 1.71e-01 2.05e-01h  1
  71 -2.4483581e-01 1.83e+01 3.04e+05  -6.0 2.84e+04 -10.2 5.34e-02 2.31e-02h  1
  72 -2.4502868e-01 1.83e+01 3.00e+05  -6.0 7.95e+03 -10.6 1.26e-01 1.23e-02h  1
  73 -2.4576699e-01 3.79e+01 2.98e+05  -6.0 1.33e+05 -10.2 5.54e-04 7.03e-03h  1
  74 -2.4652156e-01 3.50e+01 2.75e+05  -6.0 2.80e+04 -10.7 5.20e-02 7.66e-02h  1
  75 -2.4655280e-01 3.48e+01 2.73e+05  -6.0 1.03e+03  -9.4 3.62e-02 5.91e-03h  1
  76 -2.4668175e-01 3.41e+01 2.68e+05  -6.0 1.05e+04  -9.8 1.49e-02 2.07e-02h  1
  77 -2.4684724e-01 3.28e+01 2.58e+05  -6.0 2.66e+03  -8.5 3.98e-02 3.80e-02h  1
  78 -2.4681903e-01 2.50e+01 1.96e+05  -6.0 5.75e+02  -8.1 3.25e-02 2.38e-01h  1
  79 -2.4677478e-01 2.15e+01 1.69e+05  -6.0 4.69e+02  -7.7 1.93e-03 1.41e-01h  1
iter    objective    inf_pr   inf_du lg(mu)  ||d||  lg(rg) alpha_du alpha_pr  ls
  80 -2.4709298e-01 1.84e+01 1.44e+05  -6.0 2.24e+02  -8.1 1.80e-02 1.46e-01h  1
  81 -2.4702868e-01 1.59e+01 1.25e+05  -6.0 3.04e+02  -8.6 1.42e-05 1.32e-01h  1
  82 -2.4718602e-01 4.61e+00 3.62e+04  -6.0 3.63e+01  -7.3 1.01e-01 7.10e-01h  1
  83 -2.4718025e-01 4.41e+00 3.46e+04  -6.0 5.85e+00  -6.0 1.46e-01 4.53e-02h  1
  84 -2.4720986e-01 2.76e+00 2.16e+04  -6.0 8.25e+00  -6.4 4.67e-01 3.74e-01f  1
  85 -2.4726476e-01 1.82e+00 1.23e+04  -6.0 1.18e+01  -6.9 7.02e-01 4.32e-01h  1
  86 -2.4740631e-01 2.64e-03 3.79e+00  -6.0 1.59e+01  -7.4 1.00e+00 1.00e+00h  1
  87 -2.4760921e-01 9.92e-02 1.17e-01  -6.0 4.46e+01  -7.9 1.00e+00 1.00e+00h  1
  88 -2.4812985e-01 3.04e-01 2.99e-01  -6.0 1.22e+02  -8.3 1.00e+00 1.00e+00h  1
  89 -2.4871505e-01 7.20e-01 5.11e+01  -6.0 5.65e+02  -8.8 1.00e+00 3.52e-01h  1
iter    objective    inf_pr   inf_du lg(mu)  ||d||  lg(rg) alpha_du alpha_pr  ls
  90 -2.4943877e-01 2.89e+00 2.07e+02  -6.0 7.74e+02  -9.3 1.74e-01 2.64e-01h  1
  91 -2.4947429e-01 2.11e+00 3.95e+02  -6.0 8.44e+01  -7.1 3.60e-02 4.17e-01h  1
  92 -2.4937665e-01 2.09e+00 4.88e+02  -6.0 5.99e+01  -7.5 3.29e-03 1.73e-01h  1
  93 -2.4949322e-01 4.28e+01 4.67e+02  -6.0 6.54e+02  -6.2 2.34e-02 3.63e-02f  1
  94 -2.4963273e-01 3.00e+01 2.36e+02  -6.0 1.38e+01  -5.8 9.10e-01 3.33e-01h  1
  95 -2.4996632e-01 7.92e+00 6.33e+01  -6.0 1.01e+01  -6.3 7.32e-01 7.29e-01h  1
  96 -2.4997878e-01 7.20e+00 9.91e+00  -6.0 4.15e+00  -6.7 9.04e-01 9.12e-02h  1
  97 -2.5010325e-01 2.18e+00 3.77e+00  -6.0 1.03e+01  -7.2 1.00e+00 7.07e-01h  1
  98 -2.5024625e-01 2.41e-01 2.28e-01  -6.0 2.89e+01  -7.7 1.00e+00 1.00e+00h  1
  99 -2.5054096e-01 6.44e-01 5.72e-01  -6.0 8.12e+01  -8.2 1.00e+00 1.00e+00h  1
iter    objective    inf_pr   inf_du lg(mu)  ||d||  lg(rg) alpha_du alpha_pr  ls
 100 -2.5098011e-01 1.47e+00 1.31e+00  -6.0 2.87e+02  -8.7 5.79e-01 5.78e-01h  1
 101 -2.5238351e-01 1.08e+01 9.49e+00  -6.0 4.70e+02  -9.1 1.00e+00 9.34e-01h  1
 102 -2.5420132e-01 8.73e+00 9.84e+00  -6.0 7.97e+02  -9.6 1.00e+00 9.86e-01h  1
 103 -2.5430072e-01 8.07e+00 8.93e+00  -6.0 2.77e+03 -10.1 9.27e-02 9.65e-02h  1
 104 -2.5453054e-01 2.96e+01 1.96e+01  -6.0 2.48e+04    -  9.52e-02 5.81e-02h  1
 105 -2.5453299e-01 2.96e+01 1.95e+01  -6.0 4.14e+04  -9.7 5.85e-04 4.17e-04h  1
 106 -2.5488270e-01 1.43e+01 1.07e+01  -6.0 1.77e+03 -10.1 4.90e-01 5.18e-01h  1
 107 -2.5486946e-01 1.34e+01 1.10e+01  -6.0 4.58e+03  -9.7 3.73e-02 6.77e-02h  1
 108 -2.5487034e-01 1.31e+01 2.33e+01  -6.0 1.37e+03  -8.4 5.53e-01 2.08e-02h  1
 109 -2.5486017e-01 5.43e+00 1.01e+01  -6.0 1.96e+02  -8.9 5.69e-01 5.84e-01h  1
iter    objective    inf_pr   inf_du lg(mu)  ||d||  lg(rg) alpha_du alpha_pr  ls
 110 -2.5486297e-01 6.27e+01 9.88e+00  -6.0 1.42e+05    -  1.77e-02 1.46e-02h  1
 111 -2.5499096e-01 5.33e+01 1.01e+02  -6.0 1.11e+04    -  1.64e-01 1.77e-01h  1
 112 -2.5502330e-01 6.63e+01 6.14e+01  -6.0 1.14e+04    -  1.10e-01 1.07e-01h  1
 113 -2.5507613e-01 5.05e+01 2.34e+04  -6.0 4.68e+03    -  2.30e-02 2.41e-01h  1
 114 -2.5506968e-01 4.58e+01 2.12e+04  -6.0 9.72e+02  -9.3 5.70e-02 9.46e-02h  1
 115 -2.5507198e-01 5.07e+01 2.00e+04  -6.0 1.47e+04    -  1.13e-02 5.39e-02h  1
 116 -2.5508720e-01 4.43e+01 1.73e+04  -6.0 4.36e+03    -  1.36e-01 1.34e-01h  1
 117 -2.5508034e-01 2.28e+01 2.77e+03  -6.0 1.50e+03  -9.8 2.58e-01 8.38e-01h  1
 118 -2.5520350e-01 2.61e+01 1.97e+03  -6.0 6.78e+03 -10.3 8.18e-02 2.87e-01H  1
 119 -2.5514765e-01 2.56e+01 1.93e+03  -6.0 4.19e+03  -9.9 2.68e-04 2.16e-02h  1
iter    objective    inf_pr   inf_du lg(mu)  ||d||  lg(rg) alpha_du alpha_pr  ls
 120 -2.5520354e-01 2.56e+01 1.93e+03  -6.0 2.56e+05  -9.4 1.97e-08 2.38e-04f  1
 121 -2.5515598e-01 2.54e+01 3.44e+03  -6.0 1.95e+03  -7.2 1.60e-03 5.68e-03h  1
 122 -2.5521421e-01 2.54e+01 3.50e+03  -6.0 2.94e+03  -7.7 4.88e-06 2.27e-03f  1
 123 -2.5540506e-01 1.40e+01 1.12e+04  -6.0 1.73e+02  -8.2 1.02e-01 4.48e-01f  1
 124 -2.5544706e-01 1.38e+01 9.05e+03  -6.0 1.00e+03  -8.6 6.24e-02 1.34e-02h  1
 125 -2.5559846e-01 1.23e+00 1.29e+04  -6.0 2.64e+02  -9.1 3.16e-01 1.00e+00h  1
 126 -2.5566390e-01 1.13e+00 1.10e+04  -6.0 4.74e+02  -9.6 5.76e-01 1.51e-01h  1
 127 -2.5563600e-01 1.12e+00 1.08e+04  -6.0 1.32e+03 -10.1 1.37e-01 1.69e-02h  5
 128 -2.5563597e-01 1.12e+00 1.08e+04  -6.0 2.21e+05    -  1.34e-02 5.00e-05h  6
 129 -2.5572916e-01 2.59e+00 8.67e+03  -6.0 1.58e+03    -  1.00e+00 1.97e-01h  1
iter    objective    inf_pr   inf_du lg(mu)  ||d||  lg(rg) alpha_du alpha_pr  ls
 130 -2.5585009e-01 9.18e+00 2.89e+03  -6.0 1.26e+03    -  1.00e+00 6.66e-01h  1
 131 -2.5591642e-01 1.59e+00 4.02e+04  -6.0 3.18e+02  -9.6 1.56e-03 1.00e+00h  1
 132 -2.5596823e-01 1.28e+00 2.80e+04  -6.0 3.39e+02  -9.2 2.01e-01 3.03e-01h  1
 133 -2.5597742e-01 1.22e+00 1.84e+04  -6.0 4.48e+02  -9.7 1.00e+00 3.44e-01h  1
 134 -2.5605447e-01 5.00e+00 1.14e+04  -6.0 1.34e+03 -10.2 5.14e-01 3.81e-01h  1
 135 -2.5609005e-01 3.74e+00 5.66e+03  -6.0 8.22e+02 -10.6 1.04e-01 5.04e-01h  1
 136 -2.5609602e-01 3.61e+00 5.45e+03  -6.0 6.03e+02  -9.3 9.96e-02 3.61e-02h  1
 137 -2.5610980e-01 4.18e+00 1.74e+01  -6.0 1.33e+01  -7.1 1.26e-01 1.00e+00h  1
 138 -2.5612389e-01 2.70e+00 1.91e+00  -6.0 1.18e+01  -7.6 1.00e+00 4.73e-01h  1
 139 -2.5614893e-01 2.69e+00 2.04e+00  -6.0 1.45e+01  -8.0 1.00e+00 7.17e-01h  1
iter    objective    inf_pr   inf_du lg(mu)  ||d||  lg(rg) alpha_du alpha_pr  ls
 140 -2.5618968e-01 4.26e+00 2.27e+01  -6.0 2.55e+03    -  1.00e+00 3.83e-01h  1
 141 -2.5620476e-01 1.87e+01 1.30e+00  -6.0 1.78e+03    -  1.00e+00 1.00e+00h  1
 142 -2.5618987e-01 9.82e+00 6.31e+00  -6.0 2.97e+02    -  1.00e+00 4.76e-01h  1
 143 -2.5617606e-01 6.21e-01 3.04e-02  -6.0 1.16e+02    -  1.00e+00 1.00e+00h  1
 144 -2.5617545e-01 5.78e-01 6.56e-01  -6.0 8.40e+01    -  1.00e+00 4.95e-01h  2
 145 -2.5617525e-01 1.67e-01 7.11e-03  -6.0 5.16e+01  -8.5 9.55e-01 1.00e+00h  1
 146 -2.5617375e-01 2.75e-01 5.08e+00  -6.0 4.46e+02    -  1.00e+00 2.22e-01h  2
 147 -2.5617060e-01 4.27e-01 6.93e+00  -6.0 6.07e+02    -  1.00e+00 2.73e-01h  2
 148 -2.5615414e-01 6.18e-01 1.32e+00  -6.0 5.75e+02    -  1.00e+00 8.43e-01H  1
 149 -2.5616105e-01 4.01e-01 1.43e-02  -6.0 1.86e+02    -  1.00e+00 1.00e+00h  1
iter    objective    inf_pr   inf_du lg(mu)  ||d||  lg(rg) alpha_du alpha_pr  ls
 150 -2.5615781e-01 8.77e-02 3.08e-03  -6.0 8.74e+01    -  1.00e+00 1.00e+00h  1
 151 -2.5615719e-01 2.80e-03 9.16e-05  -6.0 1.57e+01    -  1.00e+00 1.00e+00h  1
 152 -2.5615717e-01 2.73e-06 8.82e-08  -6.0 4.89e-01    -  1.00e+00 1.00e+00h  1
 153 -2.5676583e-01 1.87e+00 1.61e+01  -7.5 3.03e+03    -  3.12e-01 3.34e-01h  1
 154 -2.5707342e-01 2.59e+00 1.87e+01  -7.5 2.82e+03    -  3.76e-01 3.91e-01h  1
 155 -2.5710938e-01 2.40e+00 8.64e+00  -7.5 2.17e+03    -  1.83e-01 8.72e-02h  1
 156 -2.5726839e-01 2.00e+00 1.17e+01  -7.5 2.03e+03    -  4.40e-01 3.69e-01h  1
 157 -2.5741657e-01 1.58e+01 1.94e+01  -7.5 1.97e+03    -  2.75e-01 5.71e-01h  1
 158 -2.5745859e-01 6.11e+00 5.96e+00  -7.5 6.67e+02    -  8.05e-01 8.56e-01h  1
 159 -2.5746352e-01 2.66e+01 4.49e+00  -7.5 4.06e+03    -  2.92e-01 3.74e-01h  2
iter    objective    inf_pr   inf_du lg(mu)  ||d||  lg(rg) alpha_du alpha_pr  ls
 160 -2.5747621e-01 7.49e+00 3.08e+00  -7.5 8.09e+02    -  5.51e-01 1.00e+00h  1
 161 -2.5747737e-01 6.42e+00 2.85e+00  -7.5 9.34e+00  -9.0 6.62e-02 1.42e-01h  1
 162 -2.5747683e-01 3.29e+00 4.81e+00  -7.5 7.81e+02  -9.5 5.48e-03 4.89e-01f  1
 163 -2.5747525e-01 1.98e+00 1.78e+00  -7.5 2.85e+00  -5.4 4.40e-01 3.98e-01h  1
 164 -2.5747297e-01 7.68e-04 1.33e+00  -7.5 1.18e+00  -5.9 1.00e+00 1.00e+00h  1
 165 -2.5747334e-01 3.06e-06 3.69e-02  -7.5 5.43e-01  -6.4 1.00e+00 1.00e+00h  1
 166 -2.5747452e-01 2.50e-05 1.81e-03  -7.5 1.50e+00  -6.9 1.00e+00 1.00e+00h  1
 167 -2.5747664e-01 1.93e-06 3.44e-03  -7.5 2.62e+00  -7.3 1.00e+00 9.80e-01H  1
 168 -2.5747566e-01 3.60e-04 2.77e-04  -7.5 1.37e+00  -7.8 1.00e+00 1.00e+00f  1
 169 -2.5747646e-01 3.25e-03 1.36e-04  -7.5 3.39e+00  -8.3 1.00e+00 1.00e+00h  1
iter    objective    inf_pr   inf_du lg(mu)  ||d||  lg(rg) alpha_du alpha_pr  ls
 170 -2.5747688e-01 2.59e-02 5.29e-05  -7.5 1.01e+01  -8.8 1.00e+00 1.00e+00h  1
 171 -2.5747732e-01 1.22e-01 1.56e-04  -7.5 2.89e+01  -9.3 1.00e+00 1.00e+00h  1
 172 -2.5747833e-01 1.96e-01 1.00e-03  -7.5 7.46e+01  -9.7 1.00e+00 1.00e+00h  1
 173 -2.5747988e-01 3.83e-01 3.84e-03  -7.5 1.45e+02 -10.2 1.00e+00 1.00e+00h  1
 174 -2.5748054e-01 4.57e-01 4.69e-03  -7.5 1.59e+02 -10.7 1.00e+00 1.00e+00h  1
 175 -2.5748045e-01 3.51e-01 1.47e-02  -7.5 1.90e+02    -  4.24e-01 2.50e-01h  3
 176 -2.5748036e-01 4.08e+00 7.39e-02  -7.5 8.98e+02    -  6.70e-01 5.00e-01h  2
 177 -2.5748039e-01 1.53e+00 4.04e-02  -7.5 9.82e+02    -  1.00e+00 1.00e+00H  1
 178 -2.5748060e-01 7.24e+00 6.40e-01  -7.5 4.73e+03    -  4.27e-01 1.46e-01h  3
 179 -2.5748083e-01 1.17e+01 1.72e+00  -7.5 4.51e+03    -  1.00e+00 1.45e-01h  3
iter    objective    inf_pr   inf_du lg(mu)  ||d||  lg(rg) alpha_du alpha_pr  ls
 180 -2.5748123e-01 1.40e+01 8.51e-03  -7.5 1.02e+03    -  1.00e+00 1.00e+00h  1
 181 -2.5748130e-01 1.38e+01 1.37e+00  -7.5 4.21e+03    -  4.01e-01 3.44e-02h  5
 182 -2.5748152e-01 1.39e+01 6.59e-01  -7.5 2.02e+03    -  1.00e+00 2.50e-01h  3
 183 -2.5748147e-01 2.08e+01 1.31e+00  -7.5 1.22e+03    -  4.35e-02 1.00e+00H  1
 184 -2.5748155e-01 6.15e-01 3.11e-03  -7.5 2.31e+02    -  1.00e+00 1.00e+00h  1
 185 -2.5748135e-01 7.30e+01 8.50e-01  -7.5 2.75e+03    -  2.55e-02 1.00e+00H  1
 186 -2.5748144e-01 3.56e+01 4.36e-01  -7.5 5.91e+02    -  1.00e+00 5.00e-01h  2
 187 -2.5748161e-01 1.54e+01 2.43e-01  -7.5 8.59e+02    -  1.00e+00 5.00e-01h  2
 188 -2.5748192e-01 7.27e+00 6.82e-03  -7.5 7.35e+02    -  1.00e+00 1.00e+00h  1
 189 -2.5748192e-01 7.78e-03 1.27e-02  -7.5 1.77e+01    -  7.19e-01 1.00e+00h  1
iter    objective    inf_pr   inf_du lg(mu)  ||d||  lg(rg) alpha_du alpha_pr  ls
 190 -2.5748196e-01 4.92e-01 2.42e-04  -7.5 8.23e+01 -11.2 1.00e+00 1.00e+00h  1
 191 -2.5748203e-01 5.10e-01 8.12e-04  -7.5 1.47e+02    -  1.00e+00 1.00e+00h  1
 192 -2.5748216e-01 1.42e+00 1.65e-01  -7.5 3.55e+03    -  1.49e-01 7.84e-02h  4
 193 -2.5748234e-01 4.95e+00 5.02e-03  -7.5 3.69e+02    -  1.00e+00 1.00e+00h  1
 194 -2.5748239e-01 2.22e-01 9.39e-04  -7.5 1.19e+02    -  1.00e+00 1.00e+00h  1
 195 -2.5748235e-01 1.42e-01 4.28e-04  -7.5 9.72e+01    -  1.00e+00 1.00e+00h  1
 196 -2.5748233e-01 2.84e-02 8.15e-05  -7.5 4.35e+01    -  1.00e+00 1.00e+00h  1
 197 -2.5748232e-01 2.81e-05 7.80e-08  -7.5 1.40e+00    -  1.00e+00 1.00e+00h  1
 198 -2.5748232e-01 5.66e-10 5.46e-13  -7.5 2.33e-03    -  1.00e+00 1.00e+00h  1
 199 -2.5748358e-01 6.78e-01 2.49e+00  -9.0 1.30e+03    -  4.25e-01 1.64e-01h  1
iter    objective    inf_pr   inf_du lg(mu)  ||d||  lg(rg) alpha_du alpha_pr  ls
 200 -2.5748546e-01 6.76e+01 1.03e+00  -9.0 5.91e+03    -  2.40e-01 3.58e-01h  1
 201 -2.5748678e-01 4.36e+01 1.04e+00  -9.0 1.63e+03    -  3.45e-01 6.68e-01h  1
 202 -2.5748750e-01 4.40e+01 1.59e+00  -9.0 1.65e+03    -  3.90e-01 8.87e-01h  1
 203 -2.5748750e-01 1.01e+01 4.68e+00  -9.0 9.36e+02    -  6.52e-02 1.00e+00h  1
 204 -2.5748751e-01 9.50e-01 1.31e+00  -9.0 2.18e+02 -11.6 1.73e-01 1.00e+00h  1
 205 -2.5748751e-01 4.82e-04 9.14e-01  -9.0 3.20e+00 -10.3 3.00e-01 1.00e+00h  1
 206 -2.5748771e-01 5.28e+00 6.35e-01  -9.0 6.60e+02    -  3.45e-01 1.00e+00h  1
 207 -2.5748770e-01 1.35e-02 4.68e-01  -9.0 2.08e+01 -10.8 1.99e-01 1.00e+00h  1
 208 -2.5748771e-01 5.89e-02 7.06e-06  -9.0 3.29e+01 -11.3 1.00e+00 1.00e+00h  1
 209 -2.5748782e-01 6.40e+00 4.06e-03  -9.0 1.57e+04    -  2.47e-02 4.64e-02h  3
iter    objective    inf_pr   inf_du lg(mu)  ||d||  lg(rg) alpha_du alpha_pr  ls
 210 -2.5748785e-01 7.11e-02 1.41e-05  -9.0 6.39e+01 -11.7 1.00e+00 1.00e+00h  1
 211 -2.5748791e-01 1.32e+00 1.11e-04  -9.0 1.92e+02 -12.2 9.42e-01 1.00e+00h  1
 212 -2.5748808e-01 4.29e+00 5.06e-04  -9.0 5.86e+02 -12.7 1.00e+00 1.00e+00h  1
 213 -2.5748837e-01 2.83e+01 2.35e-03  -9.0 1.91e+03 -13.2 7.67e-01 7.65e-01h  1
 214 -2.5748823e-01 8.95e+00 4.15e-02  -9.0 8.51e+02 -13.6 1.00e+00 1.00e+00h  1
 215 -2.5748823e-01 8.80e+00 3.95e-02  -9.0 3.64e+03    -  6.22e-01 4.77e-02h  4
 216 -2.5748825e-01 7.90e+00 3.35e-02  -9.0 2.04e+03    -  1.00e+00 1.53e-01h  3
 217 -2.5748815e-01 7.35e+00 2.65e-02  -9.0 1.30e+04 -12.3 1.51e-01 1.07e-01H  1
 218 -2.5748821e-01 6.90e+00 2.41e-02  -9.0 1.99e+03 -12.8 9.33e-03 1.22e-01h  3
 219 -2.5748839e-01 4.31e+00 2.02e-02  -9.0 5.59e+02 -12.4 4.24e-01 1.00e+00h  1
iter    objective    inf_pr   inf_du lg(mu)  ||d||  lg(rg) alpha_du alpha_pr  ls
 220 -2.5748839e-01 2.48e+00 1.17e-02  -9.0 1.91e+02 -12.8 4.12e-01 4.51e-01h  1
 221 -2.5748839e-01 1.72e+00 9.82e-02  -9.0 1.85e+02 -13.3 1.00e+00 3.23e-01h  1
 222 -2.5748839e-01 6.03e-01 6.99e-03  -9.0 6.03e+02 -13.8 1.00e+00 1.00e+00H  1
 223 -2.5748839e-01 6.43e-01 8.15e-04  -9.0 6.00e+01 -12.5 1.00e+00 1.00e+00h  1
 224 -2.5748839e-01 2.18e-01 2.86e-04  -9.0 9.95e+01 -12.9 1.00e+00 1.00e+00h  1
 225 -2.5748839e-01 2.40e-01 1.01e-03  -9.0 9.40e+01 -12.5 4.96e-01 1.00e+00H  1
 226 -2.5748839e-01 2.40e-01 1.60e-02  -9.0 1.91e+03 -13.0 4.91e-01 7.33e-04h 10
 227 -2.5748839e-01 2.40e-01 2.22e-02  -9.0 2.10e+03 -12.6 8.39e-04 5.53e-04h  3
 228 -2.5748839e-01 1.67e-01 1.72e-01  -9.0 2.41e-01  -6.7 6.60e-01 3.03e-01h  1
 229 -2.5748839e-01 1.59e-01 1.59e-01  -9.0 1.00e+03    -  6.99e-02 5.33e-02h  2
iter    objective    inf_pr   inf_du lg(mu)  ||d||  lg(rg) alpha_du alpha_pr  ls
 230 -2.5748839e-01 7.26e-02 3.91e-02  -9.0 1.59e-01  -3.6 1.00e+00 5.42e-01h  1
 231 -2.5748839e-01 1.53e-08 2.97e-04  -9.0 7.29e-02  -4.1 1.00e+00 1.00e+00f  1
 232 -2.5748839e-01 1.41e-08 9.20e-02  -9.0 1.74e-02  -4.5 3.51e-01 7.55e-02h  3
 233 -2.5748839e-01 3.73e-10 9.30e-04  -9.0 1.48e-04  -3.2 1.00e+00 1.00e+00h  1
 234 -2.5748839e-01 7.89e-02 7.72e-02  -9.0 1.18e+02    -  9.79e-01 2.64e-01h  2
 235 -2.5748839e-01 1.69e-08 1.65e-04  -9.0 7.86e-02  -3.7 1.00e+00 1.00e+00h  1
 236 -2.5748839e-01 2.47e-07 1.03e-03  -9.0 1.00e+00    -  1.00e+00 1.00e+00H  1
 237 -2.5748839e-01 2.87e-10 6.28e-05  -9.0 6.31e-05  -4.2 1.00e+00 1.00e+00h  1
 238 -2.5748839e-01 2.82e-10 6.19e-08  -9.0 1.73e-05  -4.7 1.00e+00 1.00e+00H  1
 239 -2.5748839e-01 1.52e-10 1.27e-10  -9.0 1.70e-05  -5.1 1.00e+00 1.00e+00h  1

Number of Iterations....: 239

                                   (scaled)                 (unscaled)
Objective...............:  -2.5748838729171164e-01   -2.5748838729171164e-01
Dual infeasibility......:   1.2654347929857313e-10    1.2654347929857313e-10
Constraint violation....:   1.5177661211174254e-10    1.5177661211174254e-10
Complementarity.........:   9.0909091362860005e-10    9.0909091362860005e-10
Overall NLP error.......:   9.0909091362860005e-10    9.0909091362860005e-10


Number of objective function evaluations             = 418
Number of objective gradient evaluations             = 240
Number of equality constraint evaluations            = 419
Number of inequality constraint evaluations          = 419
Number of equality constraint Jacobian evaluations   = 240
Number of inequality constraint Jacobian evaluations = 240
Number of Lagrangian Hessian evaluations             = 239
Total CPU secs in IPOPT (w/o function evaluations)   =    548.910
Total CPU secs in NLP function evaluations           =      9.079

EXIT: Optimal Solution Found.
